<instance format="XCSP3" type="CSP">
  <variables>
    <array id="x" note="x[w][p] is the group admitting on week w the player p" size="[7][8]"> 0 1 </array>
  </variables>
  <constraints>
    <group note="ensuring that two players don't meet more than one time">
      <intension> imp(eq(%0,%1),ne(%2,%3)) </intension>
      <args> x[0..1][0..1] </args>
      <args> x[0][0] x[0][2] x[1][0] x[1][2] </args>
      <args> x[0][0] x[0][3] x[1][0] x[1][3] </args>
      <args> x[0][0] x[0][4] x[1][0] x[1][4] </args>
      <args> x[0][0] x[0][5] x[1][0] x[1][5] </args>
      <args> x[0][0] x[0][6] x[1][0] x[1][6] </args>
      <args> x[0][0] x[0][7] x[1][0] x[1][7] </args>
      <args> x[0..1][1..2] </args>
      <args> x[0][1] x[0][3] x[1][1] x[1][3] </args>
      <args> x[0][1] x[0][4] x[1][1] x[1][4] </args>
      <args> x[0][1] x[0][5] x[1][1] x[1][5] </args>
      <args> x[0][1] x[0][6] x[1][1] x[1][6] </args>
      <args> x[0][1] x[0][7] x[1][1] x[1][7] </args>
      <args> x[0..1][2..3] </args>
      <args> x[0][2] x[0][4] x[1][2] x[1][4] </args>
      <args> x[0][2] x[0][5] x[1][2] x[1][5] </args>
      <args> x[0][2] x[0][6] x[1][2] x[1][6] </args>
      <args> x[0][2] x[0][7] x[1][2] x[1][7] </args>
      <args> x[0..1][3..4] </args>
      <args> x[0][3] x[0][5] x[1][3] x[1][5] </args>
      <args> x[0][3] x[0][6] x[1][3] x[1][6] </args>
      <args> x[0][3] x[0][7] x[1][3] x[1][7] </args>
      <args> x[0..1][4..5] </args>
      <args> x[0][4] x[0][6] x[1][4] x[1][6] </args>
      <args> x[0][4] x[0][7] x[1][4] x[1][7] </args>
      <args> x[0..1][5..6] </args>
      <args> x[0][5] x[0][7] x[1][5] x[1][7] </args>
      <args> x[0..1][6..7] </args>
      <args> x[0][0..1] x[2][0..1] </args>
      <args> x[0][0] x[0][2] x[2][0] x[2][2] </args>
      <args> x[0][0] x[0][3] x[2][0] x[2][3] </args>
      <args> x[0][0] x[0][4] x[2][0] x[2][4] </args>
      <args> x[0][0] x[0][5] x[2][0] x[2][5] </args>
      <args> x[0][0] x[0][6] x[2][0] x[2][6] </args>
      <args> x[0][0] x[0][7] x[2][0] x[2][7] </args>
      <args> x[0][1..2] x[2][1..2] </args>
      <args> x[0][1] x[0][3] x[2][1] x[2][3] </args>
      <args> x[0][1] x[0][4] x[2][1] x[2][4] </args>
      <args> x[0][1] x[0][5] x[2][1] x[2][5] </args>
      <args> x[0][1] x[0][6] x[2][1] x[2][6] </args>
      <args> x[0][1] x[0][7] x[2][1] x[2][7] </args>
      <args> x[0][2..3] x[2][2..3] </args>
      <args> x[0][2] x[0][4] x[2][2] x[2][4] </args>
      <args> x[0][2] x[0][5] x[2][2] x[2][5] </args>
      <args> x[0][2] x[0][6] x[2][2] x[2][6] </args>
      <args> x[0][2] x[0][7] x[2][2] x[2][7] </args>
      <args> x[0][3..4] x[2][3..4] </args>
      <args> x[0][3] x[0][5] x[2][3] x[2][5] </args>
      <args> x[0][3] x[0][6] x[2][3] x[2][6] </args>
      <args> x[0][3] x[0][7] x[2][3] x[2][7] </args>
      <args> x[0][4..5] x[2][4..5] </args>
      <args> x[0][4] x[0][6] x[2][4] x[2][6] </args>
      <args> x[0][4] x[0][7] x[2][4] x[2][7] </args>
      <args> x[0][5..6] x[2][5..6] </args>
      <args> x[0][5] x[0][7] x[2][5] x[2][7] </args>
      <args> x[0][6..7] x[2][6..7] </args>
      <args> x[0][0..1] x[3][0..1] </args>
      <args> x[0][0] x[0][2] x[3][0] x[3][2] </args>
      <args> x[0][0] x[0][3] x[3][0] x[3][3] </args>
      <args> x[0][0] x[0][4] x[3][0] x[3][4] </args>
      <args> x[0][0] x[0][5] x[3][0] x[3][5] </args>
      <args> x[0][0] x[0][6] x[3][0] x[3][6] </args>
      <args> x[0][0] x[0][7] x[3][0] x[3][7] </args>
      <args> x[0][1..2] x[3][1..2] </args>
      <args> x[0][1] x[0][3] x[3][1] x[3][3] </args>
      <args> x[0][1] x[0][4] x[3][1] x[3][4] </args>
      <args> x[0][1] x[0][5] x[3][1] x[3][5] </args>
      <args> x[0][1] x[0][6] x[3][1] x[3][6] </args>
      <args> x[0][1] x[0][7] x[3][1] x[3][7] </args>
      <args> x[0][2..3] x[3][2..3] </args>
      <args> x[0][2] x[0][4] x[3][2] x[3][4] </args>
      <args> x[0][2] x[0][5] x[3][2] x[3][5] </args>
      <args> x[0][2] x[0][6] x[3][2] x[3][6] </args>
      <args> x[0][2] x[0][7] x[3][2] x[3][7] </args>
      <args> x[0][3..4] x[3][3..4] </args>
      <args> x[0][3] x[0][5] x[3][3] x[3][5] </args>
      <args> x[0][3] x[0][6] x[3][3] x[3][6] </args>
      <args> x[0][3] x[0][7] x[3][3] x[3][7] </args>
      <args> x[0][4..5] x[3][4..5] </args>
      <args> x[0][4] x[0][6] x[3][4] x[3][6] </args>
      <args> x[0][4] x[0][7] x[3][4] x[3][7] </args>
      <args> x[0][5..6] x[3][5..6] </args>
      <args> x[0][5] x[0][7] x[3][5] x[3][7] </args>
      <args> x[0][6..7] x[3][6..7] </args>
      <args> x[0][0..1] x[4][0..1] </args>
      <args> x[0][0] x[0][2] x[4][0] x[4][2] </args>
      <args> x[0][0] x[0][3] x[4][0] x[4][3] </args>
      <args> x[0][0] x[0][4] x[4][0] x[4][4] </args>
      <args> x[0][0] x[0][5] x[4][0] x[4][5] </args>
      <args> x[0][0] x[0][6] x[4][0] x[4][6] </args>
      <args> x[0][0] x[0][7] x[4][0] x[4][7] </args>
      <args> x[0][1..2] x[4][1..2] </args>
      <args> x[0][1] x[0][3] x[4][1] x[4][3] </args>
      <args> x[0][1] x[0][4] x[4][1] x[4][4] </args>
      <args> x[0][1] x[0][5] x[4][1] x[4][5] </args>
      <args> x[0][1] x[0][6] x[4][1] x[4][6] </args>
      <args> x[0][1] x[0][7] x[4][1] x[4][7] </args>
      <args> x[0][2..3] x[4][2..3] </args>
      <args> x[0][2] x[0][4] x[4][2] x[4][4] </args>
      <args> x[0][2] x[0][5] x[4][2] x[4][5] </args>
      <args> x[0][2] x[0][6] x[4][2] x[4][6] </args>
      <args> x[0][2] x[0][7] x[4][2] x[4][7] </args>
      <args> x[0][3..4] x[4][3..4] </args>
      <args> x[0][3] x[0][5] x[4][3] x[4][5] </args>
      <args> x[0][3] x[0][6] x[4][3] x[4][6] </args>
      <args> x[0][3] x[0][7] x[4][3] x[4][7] </args>
      <args> x[0][4..5] x[4][4..5] </args>
      <args> x[0][4] x[0][6] x[4][4] x[4][6] </args>
      <args> x[0][4] x[0][7] x[4][4] x[4][7] </args>
      <args> x[0][5..6] x[4][5..6] </args>
      <args> x[0][5] x[0][7] x[4][5] x[4][7] </args>
      <args> x[0][6..7] x[4][6..7] </args>
      <args> x[0][0..1] x[5][0..1] </args>
      <args> x[0][0] x[0][2] x[5][0] x[5][2] </args>
      <args> x[0][0] x[0][3] x[5][0] x[5][3] </args>
      <args> x[0][0] x[0][4] x[5][0] x[5][4] </args>
      <args> x[0][0] x[0][5] x[5][0] x[5][5] </args>
      <args> x[0][0] x[0][6] x[5][0] x[5][6] </args>
      <args> x[0][0] x[0][7] x[5][0] x[5][7] </args>
      <args> x[0][1..2] x[5][1..2] </args>
      <args> x[0][1] x[0][3] x[5][1] x[5][3] </args>
      <args> x[0][1] x[0][4] x[5][1] x[5][4] </args>
      <args> x[0][1] x[0][5] x[5][1] x[5][5] </args>
      <args> x[0][1] x[0][6] x[5][1] x[5][6] </args>
      <args> x[0][1] x[0][7] x[5][1] x[5][7] </args>
      <args> x[0][2..3] x[5][2..3] </args>
      <args> x[0][2] x[0][4] x[5][2] x[5][4] </args>
      <args> x[0][2] x[0][5] x[5][2] x[5][5] </args>
      <args> x[0][2] x[0][6] x[5][2] x[5][6] </args>
      <args> x[0][2] x[0][7] x[5][2] x[5][7] </args>
      <args> x[0][3..4] x[5][3..4] </args>
      <args> x[0][3] x[0][5] x[5][3] x[5][5] </args>
      <args> x[0][3] x[0][6] x[5][3] x[5][6] </args>
      <args> x[0][3] x[0][7] x[5][3] x[5][7] </args>
      <args> x[0][4..5] x[5][4..5] </args>
      <args> x[0][4] x[0][6] x[5][4] x[5][6] </args>
      <args> x[0][4] x[0][7] x[5][4] x[5][7] </args>
      <args> x[0][5..6] x[5][5..6] </args>
      <args> x[0][5] x[0][7] x[5][5] x[5][7] </args>
      <args> x[0][6..7] x[5][6..7] </args>
      <args> x[0][0..1] x[6][0..1] </args>
      <args> x[0][0] x[0][2] x[6][0] x[6][2] </args>
      <args> x[0][0] x[0][3] x[6][0] x[6][3] </args>
      <args> x[0][0] x[0][4] x[6][0] x[6][4] </args>
      <args> x[0][0] x[0][5] x[6][0] x[6][5] </args>
      <args> x[0][0] x[0][6] x[6][0] x[6][6] </args>
      <args> x[0][0] x[0][7] x[6][0] x[6][7] </args>
      <args> x[0][1..2] x[6][1..2] </args>
      <args> x[0][1] x[0][3] x[6][1] x[6][3] </args>
      <args> x[0][1] x[0][4] x[6][1] x[6][4] </args>
      <args> x[0][1] x[0][5] x[6][1] x[6][5] </args>
      <args> x[0][1] x[0][6] x[6][1] x[6][6] </args>
      <args> x[0][1] x[0][7] x[6][1] x[6][7] </args>
      <args> x[0][2..3] x[6][2..3] </args>
      <args> x[0][2] x[0][4] x[6][2] x[6][4] </args>
      <args> x[0][2] x[0][5] x[6][2] x[6][5] </args>
      <args> x[0][2] x[0][6] x[6][2] x[6][6] </args>
      <args> x[0][2] x[0][7] x[6][2] x[6][7] </args>
      <args> x[0][3..4] x[6][3..4] </args>
      <args> x[0][3] x[0][5] x[6][3] x[6][5] </args>
      <args> x[0][3] x[0][6] x[6][3] x[6][6] </args>
      <args> x[0][3] x[0][7] x[6][3] x[6][7] </args>
      <args> x[0][4..5] x[6][4..5] </args>
      <args> x[0][4] x[0][6] x[6][4] x[6][6] </args>
      <args> x[0][4] x[0][7] x[6][4] x[6][7] </args>
      <args> x[0][5..6] x[6][5..6] </args>
      <args> x[0][5] x[0][7] x[6][5] x[6][7] </args>
      <args> x[0][6..7] x[6][6..7] </args>
      <args> x[1..2][0..1] </args>
      <args> x[1][0] x[1][2] x[2][0] x[2][2] </args>
      <args> x[1][0] x[1][3] x[2][0] x[2][3] </args>
      <args> x[1][0] x[1][4] x[2][0] x[2][4] </args>
      <args> x[1][0] x[1][5] x[2][0] x[2][5] </args>
      <args> x[1][0] x[1][6] x[2][0] x[2][6] </args>
      <args> x[1][0] x[1][7] x[2][0] x[2][7] </args>
      <args> x[1..2][1..2] </args>
      <args> x[1][1] x[1][3] x[2][1] x[2][3] </args>
      <args> x[1][1] x[1][4] x[2][1] x[2][4] </args>
      <args> x[1][1] x[1][5] x[2][1] x[2][5] </args>
      <args> x[1][1] x[1][6] x[2][1] x[2][6] </args>
      <args> x[1][1] x[1][7] x[2][1] x[2][7] </args>
      <args> x[1..2][2..3] </args>
      <args> x[1][2] x[1][4] x[2][2] x[2][4] </args>
      <args> x[1][2] x[1][5] x[2][2] x[2][5] </args>
      <args> x[1][2] x[1][6] x[2][2] x[2][6] </args>
      <args> x[1][2] x[1][7] x[2][2] x[2][7] </args>
      <args> x[1..2][3..4] </args>
      <args> x[1][3] x[1][5] x[2][3] x[2][5] </args>
      <args> x[1][3] x[1][6] x[2][3] x[2][6] </args>
      <args> x[1][3] x[1][7] x[2][3] x[2][7] </args>
      <args> x[1..2][4..5] </args>
      <args> x[1][4] x[1][6] x[2][4] x[2][6] </args>
      <args> x[1][4] x[1][7] x[2][4] x[2][7] </args>
      <args> x[1..2][5..6] </args>
      <args> x[1][5] x[1][7] x[2][5] x[2][7] </args>
      <args> x[1..2][6..7] </args>
      <args> x[1][0..1] x[3][0..1] </args>
      <args> x[1][0] x[1][2] x[3][0] x[3][2] </args>
      <args> x[1][0] x[1][3] x[3][0] x[3][3] </args>
      <args> x[1][0] x[1][4] x[3][0] x[3][4] </args>
      <args> x[1][0] x[1][5] x[3][0] x[3][5] </args>
      <args> x[1][0] x[1][6] x[3][0] x[3][6] </args>
      <args> x[1][0] x[1][7] x[3][0] x[3][7] </args>
      <args> x[1][1..2] x[3][1..2] </args>
      <args> x[1][1] x[1][3] x[3][1] x[3][3] </args>
      <args> x[1][1] x[1][4] x[3][1] x[3][4] </args>
      <args> x[1][1] x[1][5] x[3][1] x[3][5] </args>
      <args> x[1][1] x[1][6] x[3][1] x[3][6] </args>
      <args> x[1][1] x[1][7] x[3][1] x[3][7] </args>
      <args> x[1][2..3] x[3][2..3] </args>
      <args> x[1][2] x[1][4] x[3][2] x[3][4] </args>
      <args> x[1][2] x[1][5] x[3][2] x[3][5] </args>
      <args> x[1][2] x[1][6] x[3][2] x[3][6] </args>
      <args> x[1][2] x[1][7] x[3][2] x[3][7] </args>
      <args> x[1][3..4] x[3][3..4] </args>
      <args> x[1][3] x[1][5] x[3][3] x[3][5] </args>
      <args> x[1][3] x[1][6] x[3][3] x[3][6] </args>
      <args> x[1][3] x[1][7] x[3][3] x[3][7] </args>
      <args> x[1][4..5] x[3][4..5] </args>
      <args> x[1][4] x[1][6] x[3][4] x[3][6] </args>
      <args> x[1][4] x[1][7] x[3][4] x[3][7] </args>
      <args> x[1][5..6] x[3][5..6] </args>
      <args> x[1][5] x[1][7] x[3][5] x[3][7] </args>
      <args> x[1][6..7] x[3][6..7] </args>
      <args> x[1][0..1] x[4][0..1] </args>
      <args> x[1][0] x[1][2] x[4][0] x[4][2] </args>
      <args> x[1][0] x[1][3] x[4][0] x[4][3] </args>
      <args> x[1][0] x[1][4] x[4][0] x[4][4] </args>
      <args> x[1][0] x[1][5] x[4][0] x[4][5] </args>
      <args> x[1][0] x[1][6] x[4][0] x[4][6] </args>
      <args> x[1][0] x[1][7] x[4][0] x[4][7] </args>
      <args> x[1][1..2] x[4][1..2] </args>
      <args> x[1][1] x[1][3] x[4][1] x[4][3] </args>
      <args> x[1][1] x[1][4] x[4][1] x[4][4] </args>
      <args> x[1][1] x[1][5] x[4][1] x[4][5] </args>
      <args> x[1][1] x[1][6] x[4][1] x[4][6] </args>
      <args> x[1][1] x[1][7] x[4][1] x[4][7] </args>
      <args> x[1][2..3] x[4][2..3] </args>
      <args> x[1][2] x[1][4] x[4][2] x[4][4] </args>
      <args> x[1][2] x[1][5] x[4][2] x[4][5] </args>
      <args> x[1][2] x[1][6] x[4][2] x[4][6] </args>
      <args> x[1][2] x[1][7] x[4][2] x[4][7] </args>
      <args> x[1][3..4] x[4][3..4] </args>
      <args> x[1][3] x[1][5] x[4][3] x[4][5] </args>
      <args> x[1][3] x[1][6] x[4][3] x[4][6] </args>
      <args> x[1][3] x[1][7] x[4][3] x[4][7] </args>
      <args> x[1][4..5] x[4][4..5] </args>
      <args> x[1][4] x[1][6] x[4][4] x[4][6] </args>
      <args> x[1][4] x[1][7] x[4][4] x[4][7] </args>
      <args> x[1][5..6] x[4][5..6] </args>
      <args> x[1][5] x[1][7] x[4][5] x[4][7] </args>
      <args> x[1][6..7] x[4][6..7] </args>
      <args> x[1][0..1] x[5][0..1] </args>
      <args> x[1][0] x[1][2] x[5][0] x[5][2] </args>
      <args> x[1][0] x[1][3] x[5][0] x[5][3] </args>
      <args> x[1][0] x[1][4] x[5][0] x[5][4] </args>
      <args> x[1][0] x[1][5] x[5][0] x[5][5] </args>
      <args> x[1][0] x[1][6] x[5][0] x[5][6] </args>
      <args> x[1][0] x[1][7] x[5][0] x[5][7] </args>
      <args> x[1][1..2] x[5][1..2] </args>
      <args> x[1][1] x[1][3] x[5][1] x[5][3] </args>
      <args> x[1][1] x[1][4] x[5][1] x[5][4] </args>
      <args> x[1][1] x[1][5] x[5][1] x[5][5] </args>
      <args> x[1][1] x[1][6] x[5][1] x[5][6] </args>
      <args> x[1][1] x[1][7] x[5][1] x[5][7] </args>
      <args> x[1][2..3] x[5][2..3] </args>
      <args> x[1][2] x[1][4] x[5][2] x[5][4] </args>
      <args> x[1][2] x[1][5] x[5][2] x[5][5] </args>
      <args> x[1][2] x[1][6] x[5][2] x[5][6] </args>
      <args> x[1][2] x[1][7] x[5][2] x[5][7] </args>
      <args> x[1][3..4] x[5][3..4] </args>
      <args> x[1][3] x[1][5] x[5][3] x[5][5] </args>
      <args> x[1][3] x[1][6] x[5][3] x[5][6] </args>
      <args> x[1][3] x[1][7] x[5][3] x[5][7] </args>
      <args> x[1][4..5] x[5][4..5] </args>
      <args> x[1][4] x[1][6] x[5][4] x[5][6] </args>
      <args> x[1][4] x[1][7] x[5][4] x[5][7] </args>
      <args> x[1][5..6] x[5][5..6] </args>
      <args> x[1][5] x[1][7] x[5][5] x[5][7] </args>
      <args> x[1][6..7] x[5][6..7] </args>
      <args> x[1][0..1] x[6][0..1] </args>
      <args> x[1][0] x[1][2] x[6][0] x[6][2] </args>
      <args> x[1][0] x[1][3] x[6][0] x[6][3] </args>
      <args> x[1][0] x[1][4] x[6][0] x[6][4] </args>
      <args> x[1][0] x[1][5] x[6][0] x[6][5] </args>
      <args> x[1][0] x[1][6] x[6][0] x[6][6] </args>
      <args> x[1][0] x[1][7] x[6][0] x[6][7] </args>
      <args> x[1][1..2] x[6][1..2] </args>
      <args> x[1][1] x[1][3] x[6][1] x[6][3] </args>
      <args> x[1][1] x[1][4] x[6][1] x[6][4] </args>
      <args> x[1][1] x[1][5] x[6][1] x[6][5] </args>
      <args> x[1][1] x[1][6] x[6][1] x[6][6] </args>
      <args> x[1][1] x[1][7] x[6][1] x[6][7] </args>
      <args> x[1][2..3] x[6][2..3] </args>
      <args> x[1][2] x[1][4] x[6][2] x[6][4] </args>
      <args> x[1][2] x[1][5] x[6][2] x[6][5] </args>
      <args> x[1][2] x[1][6] x[6][2] x[6][6] </args>
      <args> x[1][2] x[1][7] x[6][2] x[6][7] </args>
      <args> x[1][3..4] x[6][3..4] </args>
      <args> x[1][3] x[1][5] x[6][3] x[6][5] </args>
      <args> x[1][3] x[1][6] x[6][3] x[6][6] </args>
      <args> x[1][3] x[1][7] x[6][3] x[6][7] </args>
      <args> x[1][4..5] x[6][4..5] </args>
      <args> x[1][4] x[1][6] x[6][4] x[6][6] </args>
      <args> x[1][4] x[1][7] x[6][4] x[6][7] </args>
      <args> x[1][5..6] x[6][5..6] </args>
      <args> x[1][5] x[1][7] x[6][5] x[6][7] </args>
      <args> x[1][6..7] x[6][6..7] </args>
      <args> x[2..3][0..1] </args>
      <args> x[2][0] x[2][2] x[3][0] x[3][2] </args>
      <args> x[2][0] x[2][3] x[3][0] x[3][3] </args>
      <args> x[2][0] x[2][4] x[3][0] x[3][4] </args>
      <args> x[2][0] x[2][5] x[3][0] x[3][5] </args>
      <args> x[2][0] x[2][6] x[3][0] x[3][6] </args>
      <args> x[2][0] x[2][7] x[3][0] x[3][7] </args>
      <args> x[2..3][1..2] </args>
      <args> x[2][1] x[2][3] x[3][1] x[3][3] </args>
      <args> x[2][1] x[2][4] x[3][1] x[3][4] </args>
      <args> x[2][1] x[2][5] x[3][1] x[3][5] </args>
      <args> x[2][1] x[2][6] x[3][1] x[3][6] </args>
      <args> x[2][1] x[2][7] x[3][1] x[3][7] </args>
      <args> x[2..3][2..3] </args>
      <args> x[2][2] x[2][4] x[3][2] x[3][4] </args>
      <args> x[2][2] x[2][5] x[3][2] x[3][5] </args>
      <args> x[2][2] x[2][6] x[3][2] x[3][6] </args>
      <args> x[2][2] x[2][7] x[3][2] x[3][7] </args>
      <args> x[2..3][3..4] </args>
      <args> x[2][3] x[2][5] x[3][3] x[3][5] </args>
      <args> x[2][3] x[2][6] x[3][3] x[3][6] </args>
      <args> x[2][3] x[2][7] x[3][3] x[3][7] </args>
      <args> x[2..3][4..5] </args>
      <args> x[2][4] x[2][6] x[3][4] x[3][6] </args>
      <args> x[2][4] x[2][7] x[3][4] x[3][7] </args>
      <args> x[2..3][5..6] </args>
      <args> x[2][5] x[2][7] x[3][5] x[3][7] </args>
      <args> x[2..3][6..7] </args>
      <args> x[2][0..1] x[4][0..1] </args>
      <args> x[2][0] x[2][2] x[4][0] x[4][2] </args>
      <args> x[2][0] x[2][3] x[4][0] x[4][3] </args>
      <args> x[2][0] x[2][4] x[4][0] x[4][4] </args>
      <args> x[2][0] x[2][5] x[4][0] x[4][5] </args>
      <args> x[2][0] x[2][6] x[4][0] x[4][6] </args>
      <args> x[2][0] x[2][7] x[4][0] x[4][7] </args>
      <args> x[2][1..2] x[4][1..2] </args>
      <args> x[2][1] x[2][3] x[4][1] x[4][3] </args>
      <args> x[2][1] x[2][4] x[4][1] x[4][4] </args>
      <args> x[2][1] x[2][5] x[4][1] x[4][5] </args>
      <args> x[2][1] x[2][6] x[4][1] x[4][6] </args>
      <args> x[2][1] x[2][7] x[4][1] x[4][7] </args>
      <args> x[2][2..3] x[4][2..3] </args>
      <args> x[2][2] x[2][4] x[4][2] x[4][4] </args>
      <args> x[2][2] x[2][5] x[4][2] x[4][5] </args>
      <args> x[2][2] x[2][6] x[4][2] x[4][6] </args>
      <args> x[2][2] x[2][7] x[4][2] x[4][7] </args>
      <args> x[2][3..4] x[4][3..4] </args>
      <args> x[2][3] x[2][5] x[4][3] x[4][5] </args>
      <args> x[2][3] x[2][6] x[4][3] x[4][6] </args>
      <args> x[2][3] x[2][7] x[4][3] x[4][7] </args>
      <args> x[2][4..5] x[4][4..5] </args>
      <args> x[2][4] x[2][6] x[4][4] x[4][6] </args>
      <args> x[2][4] x[2][7] x[4][4] x[4][7] </args>
      <args> x[2][5..6] x[4][5..6] </args>
      <args> x[2][5] x[2][7] x[4][5] x[4][7] </args>
      <args> x[2][6..7] x[4][6..7] </args>
      <args> x[2][0..1] x[5][0..1] </args>
      <args> x[2][0] x[2][2] x[5][0] x[5][2] </args>
      <args> x[2][0] x[2][3] x[5][0] x[5][3] </args>
      <args> x[2][0] x[2][4] x[5][0] x[5][4] </args>
      <args> x[2][0] x[2][5] x[5][0] x[5][5] </args>
      <args> x[2][0] x[2][6] x[5][0] x[5][6] </args>
      <args> x[2][0] x[2][7] x[5][0] x[5][7] </args>
      <args> x[2][1..2] x[5][1..2] </args>
      <args> x[2][1] x[2][3] x[5][1] x[5][3] </args>
      <args> x[2][1] x[2][4] x[5][1] x[5][4] </args>
      <args> x[2][1] x[2][5] x[5][1] x[5][5] </args>
      <args> x[2][1] x[2][6] x[5][1] x[5][6] </args>
      <args> x[2][1] x[2][7] x[5][1] x[5][7] </args>
      <args> x[2][2..3] x[5][2..3] </args>
      <args> x[2][2] x[2][4] x[5][2] x[5][4] </args>
      <args> x[2][2] x[2][5] x[5][2] x[5][5] </args>
      <args> x[2][2] x[2][6] x[5][2] x[5][6] </args>
      <args> x[2][2] x[2][7] x[5][2] x[5][7] </args>
      <args> x[2][3..4] x[5][3..4] </args>
      <args> x[2][3] x[2][5] x[5][3] x[5][5] </args>
      <args> x[2][3] x[2][6] x[5][3] x[5][6] </args>
      <args> x[2][3] x[2][7] x[5][3] x[5][7] </args>
      <args> x[2][4..5] x[5][4..5] </args>
      <args> x[2][4] x[2][6] x[5][4] x[5][6] </args>
      <args> x[2][4] x[2][7] x[5][4] x[5][7] </args>
      <args> x[2][5..6] x[5][5..6] </args>
      <args> x[2][5] x[2][7] x[5][5] x[5][7] </args>
      <args> x[2][6..7] x[5][6..7] </args>
      <args> x[2][0..1] x[6][0..1] </args>
      <args> x[2][0] x[2][2] x[6][0] x[6][2] </args>
      <args> x[2][0] x[2][3] x[6][0] x[6][3] </args>
      <args> x[2][0] x[2][4] x[6][0] x[6][4] </args>
      <args> x[2][0] x[2][5] x[6][0] x[6][5] </args>
      <args> x[2][0] x[2][6] x[6][0] x[6][6] </args>
      <args> x[2][0] x[2][7] x[6][0] x[6][7] </args>
      <args> x[2][1..2] x[6][1..2] </args>
      <args> x[2][1] x[2][3] x[6][1] x[6][3] </args>
      <args> x[2][1] x[2][4] x[6][1] x[6][4] </args>
      <args> x[2][1] x[2][5] x[6][1] x[6][5] </args>
      <args> x[2][1] x[2][6] x[6][1] x[6][6] </args>
      <args> x[2][1] x[2][7] x[6][1] x[6][7] </args>
      <args> x[2][2..3] x[6][2..3] </args>
      <args> x[2][2] x[2][4] x[6][2] x[6][4] </args>
      <args> x[2][2] x[2][5] x[6][2] x[6][5] </args>
      <args> x[2][2] x[2][6] x[6][2] x[6][6] </args>
      <args> x[2][2] x[2][7] x[6][2] x[6][7] </args>
      <args> x[2][3..4] x[6][3..4] </args>
      <args> x[2][3] x[2][5] x[6][3] x[6][5] </args>
      <args> x[2][3] x[2][6] x[6][3] x[6][6] </args>
      <args> x[2][3] x[2][7] x[6][3] x[6][7] </args>
      <args> x[2][4..5] x[6][4..5] </args>
      <args> x[2][4] x[2][6] x[6][4] x[6][6] </args>
      <args> x[2][4] x[2][7] x[6][4] x[6][7] </args>
      <args> x[2][5..6] x[6][5..6] </args>
      <args> x[2][5] x[2][7] x[6][5] x[6][7] </args>
      <args> x[2][6..7] x[6][6..7] </args>
      <args> x[3..4][0..1] </args>
      <args> x[3][0] x[3][2] x[4][0] x[4][2] </args>
      <args> x[3][0] x[3][3] x[4][0] x[4][3] </args>
      <args> x[3][0] x[3][4] x[4][0] x[4][4] </args>
      <args> x[3][0] x[3][5] x[4][0] x[4][5] </args>
      <args> x[3][0] x[3][6] x[4][0] x[4][6] </args>
      <args> x[3][0] x[3][7] x[4][0] x[4][7] </args>
      <args> x[3..4][1..2] </args>
      <args> x[3][1] x[3][3] x[4][1] x[4][3] </args>
      <args> x[3][1] x[3][4] x[4][1] x[4][4] </args>
      <args> x[3][1] x[3][5] x[4][1] x[4][5] </args>
      <args> x[3][1] x[3][6] x[4][1] x[4][6] </args>
      <args> x[3][1] x[3][7] x[4][1] x[4][7] </args>
      <args> x[3..4][2..3] </args>
      <args> x[3][2] x[3][4] x[4][2] x[4][4] </args>
      <args> x[3][2] x[3][5] x[4][2] x[4][5] </args>
      <args> x[3][2] x[3][6] x[4][2] x[4][6] </args>
      <args> x[3][2] x[3][7] x[4][2] x[4][7] </args>
      <args> x[3..4][3..4] </args>
      <args> x[3][3] x[3][5] x[4][3] x[4][5] </args>
      <args> x[3][3] x[3][6] x[4][3] x[4][6] </args>
      <args> x[3][3] x[3][7] x[4][3] x[4][7] </args>
      <args> x[3..4][4..5] </args>
      <args> x[3][4] x[3][6] x[4][4] x[4][6] </args>
      <args> x[3][4] x[3][7] x[4][4] x[4][7] </args>
      <args> x[3..4][5..6] </args>
      <args> x[3][5] x[3][7] x[4][5] x[4][7] </args>
      <args> x[3..4][6..7] </args>
      <args> x[3][0..1] x[5][0..1] </args>
      <args> x[3][0] x[3][2] x[5][0] x[5][2] </args>
      <args> x[3][0] x[3][3] x[5][0] x[5][3] </args>
      <args> x[3][0] x[3][4] x[5][0] x[5][4] </args>
      <args> x[3][0] x[3][5] x[5][0] x[5][5] </args>
      <args> x[3][0] x[3][6] x[5][0] x[5][6] </args>
      <args> x[3][0] x[3][7] x[5][0] x[5][7] </args>
      <args> x[3][1..2] x[5][1..2] </args>
      <args> x[3][1] x[3][3] x[5][1] x[5][3] </args>
      <args> x[3][1] x[3][4] x[5][1] x[5][4] </args>
      <args> x[3][1] x[3][5] x[5][1] x[5][5] </args>
      <args> x[3][1] x[3][6] x[5][1] x[5][6] </args>
      <args> x[3][1] x[3][7] x[5][1] x[5][7] </args>
      <args> x[3][2..3] x[5][2..3] </args>
      <args> x[3][2] x[3][4] x[5][2] x[5][4] </args>
      <args> x[3][2] x[3][5] x[5][2] x[5][5] </args>
      <args> x[3][2] x[3][6] x[5][2] x[5][6] </args>
      <args> x[3][2] x[3][7] x[5][2] x[5][7] </args>
      <args> x[3][3..4] x[5][3..4] </args>
      <args> x[3][3] x[3][5] x[5][3] x[5][5] </args>
      <args> x[3][3] x[3][6] x[5][3] x[5][6] </args>
      <args> x[3][3] x[3][7] x[5][3] x[5][7] </args>
      <args> x[3][4..5] x[5][4..5] </args>
      <args> x[3][4] x[3][6] x[5][4] x[5][6] </args>
      <args> x[3][4] x[3][7] x[5][4] x[5][7] </args>
      <args> x[3][5..6] x[5][5..6] </args>
      <args> x[3][5] x[3][7] x[5][5] x[5][7] </args>
      <args> x[3][6..7] x[5][6..7] </args>
      <args> x[3][0..1] x[6][0..1] </args>
      <args> x[3][0] x[3][2] x[6][0] x[6][2] </args>
      <args> x[3][0] x[3][3] x[6][0] x[6][3] </args>
      <args> x[3][0] x[3][4] x[6][0] x[6][4] </args>
      <args> x[3][0] x[3][5] x[6][0] x[6][5] </args>
      <args> x[3][0] x[3][6] x[6][0] x[6][6] </args>
      <args> x[3][0] x[3][7] x[6][0] x[6][7] </args>
      <args> x[3][1..2] x[6][1..2] </args>
      <args> x[3][1] x[3][3] x[6][1] x[6][3] </args>
      <args> x[3][1] x[3][4] x[6][1] x[6][4] </args>
      <args> x[3][1] x[3][5] x[6][1] x[6][5] </args>
      <args> x[3][1] x[3][6] x[6][1] x[6][6] </args>
      <args> x[3][1] x[3][7] x[6][1] x[6][7] </args>
      <args> x[3][2..3] x[6][2..3] </args>
      <args> x[3][2] x[3][4] x[6][2] x[6][4] </args>
      <args> x[3][2] x[3][5] x[6][2] x[6][5] </args>
      <args> x[3][2] x[3][6] x[6][2] x[6][6] </args>
      <args> x[3][2] x[3][7] x[6][2] x[6][7] </args>
      <args> x[3][3..4] x[6][3..4] </args>
      <args> x[3][3] x[3][5] x[6][3] x[6][5] </args>
      <args> x[3][3] x[3][6] x[6][3] x[6][6] </args>
      <args> x[3][3] x[3][7] x[6][3] x[6][7] </args>
      <args> x[3][4..5] x[6][4..5] </args>
      <args> x[3][4] x[3][6] x[6][4] x[6][6] </args>
      <args> x[3][4] x[3][7] x[6][4] x[6][7] </args>
      <args> x[3][5..6] x[6][5..6] </args>
      <args> x[3][5] x[3][7] x[6][5] x[6][7] </args>
      <args> x[3][6..7] x[6][6..7] </args>
      <args> x[4..5][0..1] </args>
      <args> x[4][0] x[4][2] x[5][0] x[5][2] </args>
      <args> x[4][0] x[4][3] x[5][0] x[5][3] </args>
      <args> x[4][0] x[4][4] x[5][0] x[5][4] </args>
      <args> x[4][0] x[4][5] x[5][0] x[5][5] </args>
      <args> x[4][0] x[4][6] x[5][0] x[5][6] </args>
      <args> x[4][0] x[4][7] x[5][0] x[5][7] </args>
      <args> x[4..5][1..2] </args>
      <args> x[4][1] x[4][3] x[5][1] x[5][3] </args>
      <args> x[4][1] x[4][4] x[5][1] x[5][4] </args>
      <args> x[4][1] x[4][5] x[5][1] x[5][5] </args>
      <args> x[4][1] x[4][6] x[5][1] x[5][6] </args>
      <args> x[4][1] x[4][7] x[5][1] x[5][7] </args>
      <args> x[4..5][2..3] </args>
      <args> x[4][2] x[4][4] x[5][2] x[5][4] </args>
      <args> x[4][2] x[4][5] x[5][2] x[5][5] </args>
      <args> x[4][2] x[4][6] x[5][2] x[5][6] </args>
      <args> x[4][2] x[4][7] x[5][2] x[5][7] </args>
      <args> x[4..5][3..4] </args>
      <args> x[4][3] x[4][5] x[5][3] x[5][5] </args>
      <args> x[4][3] x[4][6] x[5][3] x[5][6] </args>
      <args> x[4][3] x[4][7] x[5][3] x[5][7] </args>
      <args> x[4..5][4..5] </args>
      <args> x[4][4] x[4][6] x[5][4] x[5][6] </args>
      <args> x[4][4] x[4][7] x[5][4] x[5][7] </args>
      <args> x[4..5][5..6] </args>
      <args> x[4][5] x[4][7] x[5][5] x[5][7] </args>
      <args> x[4..5][6..7] </args>
      <args> x[4][0..1] x[6][0..1] </args>
      <args> x[4][0] x[4][2] x[6][0] x[6][2] </args>
      <args> x[4][0] x[4][3] x[6][0] x[6][3] </args>
      <args> x[4][0] x[4][4] x[6][0] x[6][4] </args>
      <args> x[4][0] x[4][5] x[6][0] x[6][5] </args>
      <args> x[4][0] x[4][6] x[6][0] x[6][6] </args>
      <args> x[4][0] x[4][7] x[6][0] x[6][7] </args>
      <args> x[4][1..2] x[6][1..2] </args>
      <args> x[4][1] x[4][3] x[6][1] x[6][3] </args>
      <args> x[4][1] x[4][4] x[6][1] x[6][4] </args>
      <args> x[4][1] x[4][5] x[6][1] x[6][5] </args>
      <args> x[4][1] x[4][6] x[6][1] x[6][6] </args>
      <args> x[4][1] x[4][7] x[6][1] x[6][7] </args>
      <args> x[4][2..3] x[6][2..3] </args>
      <args> x[4][2] x[4][4] x[6][2] x[6][4] </args>
      <args> x[4][2] x[4][5] x[6][2] x[6][5] </args>
      <args> x[4][2] x[4][6] x[6][2] x[6][6] </args>
      <args> x[4][2] x[4][7] x[6][2] x[6][7] </args>
      <args> x[4][3..4] x[6][3..4] </args>
      <args> x[4][3] x[4][5] x[6][3] x[6][5] </args>
      <args> x[4][3] x[4][6] x[6][3] x[6][6] </args>
      <args> x[4][3] x[4][7] x[6][3] x[6][7] </args>
      <args> x[4][4..5] x[6][4..5] </args>
      <args> x[4][4] x[4][6] x[6][4] x[6][6] </args>
      <args> x[4][4] x[4][7] x[6][4] x[6][7] </args>
      <args> x[4][5..6] x[6][5..6] </args>
      <args> x[4][5] x[4][7] x[6][5] x[6][7] </args>
      <args> x[4][6..7] x[6][6..7] </args>
      <args> x[5..6][0..1] </args>
      <args> x[5][0] x[5][2] x[6][0] x[6][2] </args>
      <args> x[5][0] x[5][3] x[6][0] x[6][3] </args>
      <args> x[5][0] x[5][4] x[6][0] x[6][4] </args>
      <args> x[5][0] x[5][5] x[6][0] x[6][5] </args>
      <args> x[5][0] x[5][6] x[6][0] x[6][6] </args>
      <args> x[5][0] x[5][7] x[6][0] x[6][7] </args>
      <args> x[5..6][1..2] </args>
      <args> x[5][1] x[5][3] x[6][1] x[6][3] </args>
      <args> x[5][1] x[5][4] x[6][1] x[6][4] </args>
      <args> x[5][1] x[5][5] x[6][1] x[6][5] </args>
      <args> x[5][1] x[5][6] x[6][1] x[6][6] </args>
      <args> x[5][1] x[5][7] x[6][1] x[6][7] </args>
      <args> x[5..6][2..3] </args>
      <args> x[5][2] x[5][4] x[6][2] x[6][4] </args>
      <args> x[5][2] x[5][5] x[6][2] x[6][5] </args>
      <args> x[5][2] x[5][6] x[6][2] x[6][6] </args>
      <args> x[5][2] x[5][7] x[6][2] x[6][7] </args>
      <args> x[5..6][3..4] </args>
      <args> x[5][3] x[5][5] x[6][3] x[6][5] </args>
      <args> x[5][3] x[5][6] x[6][3] x[6][6] </args>
      <args> x[5][3] x[5][7] x[6][3] x[6][7] </args>
      <args> x[5..6][4..5] </args>
      <args> x[5][4] x[5][6] x[6][4] x[6][6] </args>
      <args> x[5][4] x[5][7] x[6][4] x[6][7] </args>
      <args> x[5..6][5..6] </args>
      <args> x[5][5] x[5][7] x[6][5] x[6][7] </args>
      <args> x[5..6][6..7] </args>
    </group>
    <group note="respecting the size of the groups">
      <cardinality>
        <list> %... </list>
        <values> 0 1 </values>
        <occurs> 4 4 </occurs>
      </cardinality>
      <args> x[0][] </args>
      <args> x[1][] </args>
      <args> x[2][] </args>
      <args> x[3][] </args>
      <args> x[4][] </args>
      <args> x[5][] </args>
      <args> x[6][] </args>
    </group>
    <lex class="symmetry-breaking">
      <matrix> x[][] </matrix>
      <operator> le </operator>
    </lex>
  </constraints>
</instance>
